27	3	3
5	8	9	83	108	93	
0	0	0	0	2	2	9	7	3	9	25	2	3	4	5	6	7	8	9	10	11	12	13	14	15	16	17	18	19	20	21	22	23	24	25	26
3	4	1	3	9	3	1	3	1	2	1	13
4	3	1	2	2	10	2	7	7	5	1	4
4	1	1	1	10	2	9	10	8	10	1	27
2	4	1	3	4	5	9	2	1	3	1	13
1	1	3	3	9	3	5	7	10	7	1	14
6	2	3	3	5	9	10	6	1	10	1	20
3	4	2	1	7	2	9	9	9	5	1	27
4	4	1	1	3	9	7	2	8	5	1	20
6	2	1	1	2	2	9	10	3	10	1	18
3	3	3	1	3	2	2	7	9	2	1	27
5	2	1	3	4	4	10	3	9	10	1	27
6	2	1	3	2	6	2	10	5	1	1	27
2	1	1	1	5	8	9	1	9	7	1	27
4	3	3	2	6	10	8	4	10	1	1	27
3	1	3	3	3	3	3	5	10	1	1	27
5	3	1	3	6	3	4	5	5	3	1	18
2	2	2	2	5	7	9	7	6	3	1	27
5	1	1	2	7	1	1	5	2	10	1	27
2	3	1	3	1	7	10	9	10	10	1	27
2	5	2	1	9	3	2	1	7	1	1	27
3	3	2	3	2	3	3	5	7	8	1	27
4	3	1	3	8	2	4	6	8	10	1	27
3	2	3	3	9	4	10	9	8	1	1	27
3	5	2	3	9	9	8	8	8	8	1	27
1	5	1	3	7	7	10	8	8	7	1	27
0	0	0	0	9	9	9	2	3	6	0
